NAME : XML100_1235_24
DIMENSION : 101
NB_CLUSTERS : 3
CLUSTERING_ALG : KMedoids
CLUSTERING_PARAMS : k(2)
CLUSTERS
1 0
2 1 2 5 9 10 11 12 13 14 15 18 20 23 25 28 34 36 37 43 45 48 49 50 51 53 54 55 56 58 59 65 66 67 68 70 72 75 77 78 86 88 93 95 98
3 3 4 6 7 8 16 17 19 21 22 24 26 27 29 30 31 32 33 35 38 39 40 41 42 44 46 47 52 57 60 61 62 63 64 69 71 73 74 76 79 80 81 82 83 84 85 87 89 90 91 92 94 96 97 99 100
EOF